(set-logic QF_S)
(declare-fun var0 () String)
(declare-fun var1 () String)
(declare-fun var2 () String)
(declare-fun var3 () Int)
(declare-fun var4 () Int)
(declare-fun var5 () Int)
(declare-fun var6 () Bool)
(declare-fun var7 () Bool)
(declare-fun var8 () Bool)
(assert (str.suffixof var2 var0))
(assert (str.contains (str.substr (str.at var0 var3) (str.len var1) (str.indexof var2 var2 var3)) (str.at (str.at var1 var3) (str.indexof "Y9(;Ff0O_Z" var1 var4))))
(assert (str.suffixof (str.at (str.at var1 var4) (str.len var2)) (str.substr (str.at "8d;9*j42vf" var5) (str.len var0) (str.indexof var2 var2 var3))))
(assert (>= (str.indexof var0 var0 var3) (str.indexof (str.at var0 var3) (str.substr var2 var3 var3) (str.len var1))))
(check-sat)